\* Source Pyomo model name=unknown *\

max 
x29:
+4 x1
+6 x10
+10 x11
+7 x12
+8 x13
+10 x14
+4 x15
+4 x16
+4 x17
+4 x18
+3 x19
+7 x2
+5 x20
+3 x21
+2 x22
+3 x23
+2 x24
+3 x25
+1 x26
+3 x27
+2 x28
+3 x3
+5 x4
+5 x5
+4 x6
+6 x7
+7 x8
+8 x9

s.t.

c_u_x30_:
+4 x1
+2 x15
+4 x22
+5 x8
<= 155

c_u_x31_:
+3 x1
+5 x15
+1 x22
+7 x8
<= 147

c_u_x32_:
+2 x16
+4 x2
+4 x23
+5 x9
<= 112

c_u_x33_:
+5 x16
+3 x2
+1 x23
+7 x9
<= 63

c_u_x34_:
+5 x10
+2 x17
+4 x24
+4 x3
<= 121

c_u_x35_:
+7 x10
+5 x17
+1 x24
+3 x3
<= 132

c_u_x36_:
+5 x11
+2 x18
+4 x25
+4 x4
<= 171

c_u_x37_:
+7 x11
+5 x18
+1 x25
+3 x4
<= 290

c_u_x38_:
+5 x12
+2 x19
+4 x26
+4 x5
<= 162

c_u_x39_:
+7 x12
+5 x19
+1 x26
+3 x5
<= 147

c_u_x40_:
+5 x13
+2 x20
+4 x27
+4 x6
<= 152

c_u_x41_:
+7 x13
+5 x20
+1 x27
+3 x6
<= 177

c_u_x42_:
+5 x14
+2 x21
+4 x28
+4 x7
<= 137

c_u_x43_:
+7 x14
+5 x21
+1 x28
+3 x7
<= 110

c_u_x44_:
+4 x15
+4 x22
<= 78

c_u_x45_:
+6 x15
+1 x22
<= 90

c_u_x46_:
+3 x1
+5 x8
<= 69

c_u_x47_:
+4 x1
+3 x8
<= 78

c_u_x48_:
+4 x16
+4 x23
<= 78

c_u_x49_:
+6 x16
+1 x23
<= 90

c_u_x50_:
+3 x2
+5 x9
<= 69

c_u_x51_:
+4 x2
+3 x9
<= 78

c_u_x52_:
+4 x17
+4 x24
<= 78

c_u_x53_:
+6 x17
+1 x24
<= 90

c_u_x54_:
+5 x10
+3 x3
<= 69

c_u_x55_:
+3 x10
+4 x3
<= 78

c_u_x56_:
+4 x18
+4 x25
<= 78

c_u_x57_:
+6 x18
+1 x25
<= 90

c_u_x58_:
+5 x11
+3 x4
<= 69

c_u_x59_:
+3 x11
+4 x4
<= 78

c_u_x60_:
+4 x19
+4 x26
<= 78

c_u_x61_:
+6 x19
+1 x26
<= 90

c_u_x62_:
+5 x12
+3 x5
<= 69

c_u_x63_:
+3 x12
+4 x5
<= 78

c_u_x64_:
+4 x20
+4 x27
<= 78

c_u_x65_:
+6 x20
+1 x27
<= 90

c_u_x66_:
+5 x13
+3 x6
<= 69

c_u_x67_:
+3 x13
+4 x6
<= 78

c_u_x68_:
+4 x21
+4 x28
<= 78

c_u_x69_:
+6 x21
+1 x28
<= 90

c_u_x70_:
+5 x14
+3 x7
<= 69

c_u_x71_:
+3 x14
+4 x7
<= 78

c_e_ONE_VAR_CONSTANT: 
ONE_VAR_CONSTANT = 1.0

bounds
   0 <= x1 <= +inf
   0 <= x2 <= +inf
   0 <= x3 <= +inf
   0 <= x4 <= +inf
   0 <= x5 <= +inf
   0 <= x6 <= +inf
   0 <= x7 <= +inf
   0 <= x8 <= +inf
   0 <= x9 <= +inf
   0 <= x10 <= +inf
   0 <= x11 <= +inf
   0 <= x12 <= +inf
   0 <= x13 <= +inf
   0 <= x14 <= +inf
   0 <= x15 <= +inf
   0 <= x16 <= +inf
   0 <= x17 <= +inf
   0 <= x18 <= +inf
   0 <= x19 <= +inf
   0 <= x20 <= +inf
   0 <= x21 <= +inf
   0 <= x22 <= +inf
   0 <= x23 <= +inf
   0 <= x24 <= +inf
   0 <= x25 <= +inf
   0 <= x26 <= +inf
   0 <= x27 <= +inf
   0 <= x28 <= +inf
general
  x1
  x2
  x3
  x4
  x5
  x6
  x7
  x8
  x9
  x10
  x11
  x12
  x13
  x14
  x15
  x16
  x17
  x18
  x19
  x20
  x21
  x22
  x23
  x24
  x25
  x26
  x27
  x28
end
